NAME: map2_r1
TYPE: TSP
COMMENT: autogenerated using a wonderful map creator
DIMENSION: 210
EDGE_WEIGHT_TYPE: EUC_2D
NODE_COORD_SECTION
1 41.0 62.0
2 36.0 63.0
3 63.0 22.0
4 62.0 11.0
5 2.0 14.0
6 35.0 1.0
7 2.0 9.0
8 37.0 62.0
9 1.0 18.0
10 63.0 31.0
11 62.0 30.0
12 37.0 63.0
13 2.0 18.0
14 62.0 19.0
15 62.0 13.0
16 35.0 63.0
17 42.0 2.0
18 61.0 29.0
19 62.0 24.0
20 37.0 2.0
21 62.0 26.0
22 36.0 62.0
23 61.0 25.0
24 34.0 1.0
25 45.0 61.0
26 37.0 3.0
27 42.0 3.0
28 38.0 3.0
29 40.0 62.0
30 40.0 3.0
31 38.0 5.0
32 63.0 29.0
33 46.0 61.0
34 49.0 61.0
35 49.0 62.0
36 2.0 12.0
37 41.0 3.0
38 44.0 1.0
39 62.0 23.0
40 1.0 17.0
41 32.0 4.0
42 44.0 63.0
43 48.0 62.0
44 62.0 20.0
45 32.0 2.0
46 48.0 63.0
47 35.0 4.0
48 63.0 15.0
49 61.0 30.0
50 40.0 61.0
51 62.0 18.0
52 61.0 15.0
53 61.0 14.0
54 61.0 31.0
55 39.0 1.0
56 32.0 1.0
57 43.0 1.0
58 41.0 2.0
59 62.0 27.0
60 1.0 14.0
61 41.0 49.0
62 32.0 46.0
63 55.0 11.0
64 44.0 45.0
65 1.0 40.0
66 59.0 9.0
67 7.0 26.0
68 34.0 28.0
69 8.0 9.0
70 51.0 62.0
71 14.0 22.0
72 51.0 16.0
73 43.0 12.0
74 21.0 46.0
75 26.0 60.0
76 32.0 21.0
77 16.0 13.0
78 59.0 57.0
79 10.0 45.0
80 39.0 26.0
81 42.0 59.0
82 57.0 41.0
83 19.0 2.0
84 62.0 37.0
85 12.0 18.0
86 41.0 8.0
87 31.0 40.0
88 52.0 26.0
89 44.0 31.0
90 41.0 44.0
91 60.0 5.0
92 31.0 33.0
93 45.0 32.0
94 14.0 26.0
95 23.0 38.0
96 24.0 3.0
97 33.0 15.0
98 18.0 60.0
99 18.0 14.0
100 61.0 58.0
101 14.0 1.0
102 9.0 60.0
103 39.0 39.0
104 38.0 41.0
105 6.0 36.0
106 3.0 28.0
107 55.0 38.0
108 7.0 62.0
109 33.0 26.0
110 35.0 23.0
111 13.0 23.0
112 7.0 7.0
113 63.0 6.0
114 54.0 3.0
115 56.0 55.0
116 44.0 44.0
117 48.0 26.0
118 38.0 25.0
119 23.0 6.0
120 22.0 16.0
121 21.0 18.0
122 12.0 33.0
123 26.0 59.0
124 40.0 58.0
125 32.0 20.0
126 21.0 54.0
127 25.0 15.0
128 45.0 48.0
129 16.0 21.0
130 42.0 40.0
131 2.0 31.0
132 22.0 9.0
133 3.0 60.0
134 58.0 5.0
135 49.0 45.0
136 52.0 62.0
137 57.0 58.0
138 61.0 10.0
139 24.0 55.0
140 31.0 39.0
141 52.0 25.0
142 30.0 31.0
143 16.0 23.0
144 29.0 8.0
145 47.0 56.0
146 11.0 36.0
147 59.0 6.0
148 12.0 19.0
149 14.0 16.0
150 31.0 32.0
151 6.0 33.0
152 6.0 42.0
153 12.0 37.0
154 6.0 51.0
155 24.0 2.0
156 58.0 34.0
157 7.0 50.0
158 24.0 11.0
159 16.0 62.0
160 19.0 24.0
161 47.0 58.0
162 51.0 40.0
163 14.0 55.0
164 28.0 63.0
165 4.0 63.0
166 9.0 59.0
167 35.0 41.0
168 51.0 3.0
169 35.0 50.0
170 33.0 16.0
171 47.0 33.0
172 27.0 30.0
173 10.0 14.0
174 25.0 21.0
175 57.0 19.0
176 11.0 31.0
177 49.0 24.0
178 52.0 41.0
179 15.0 22.0
180 24.0 34.0
181 6.0 37.0
182 55.0 39.0
183 36.0 44.0
184 32.0 22.0
185 11.0 33.0
186 24.0 27.0
187 23.0 16.0
188 21.0 28.0
189 25.0 44.0
190 53.0 35.0
191 16.0 50.0
192 30.0 12.0
193 16.0 59.0
194 5.0 22.0
195 7.0 56.0
196 21.0 58.0
197 31.0 13.0
198 59.0 51.0
199 58.0 61.0
200 32.0 42.0
201 60.0 58.0
202 8.0 51.0
203 44.0 50.0
204 24.0 47.0
205 16.0 34.0
206 2.0 44.0
207 18.0 40.0
208 48.0 41.0
209 16.0 52.0
210 1.0 63.0
211 39.0 47.0
212 22.0 40.0
213 51.0 21.0
214 37.0 38.0
215 17.0 35.0
216 54.0 54.0
217 46.0 16.0
218 58.0 36.0
219 4.0 44.0
220 12.0 39.0
221 52.0 29.0
222 15.0 10.0
223 41.0 29.0
224 9.0 40.0
225 22.0 58.0
226 14.0 54.0
227 49.0 21.0
228 46.0 25.0
229 26.0 37.0
230 44.0 52.0
231 56.0 17.0
232 47.0 14.0
233 30.0 62.0
234 20.0 27.0
235 37.0 22.0
236 28.0 19.0
237 34.0 35.0
238 43.0 10.0
239 6.0 9.0
240 23.0 59.0
START_DEPOT_SECTION
1
2
3
4
5
6
7
8
9
10
11
12
13
14
15
16
17
18
19
20
21
22
23
24
25
26
27
28
29
30
-1
END_DEPOT_SECTION
31
32
33
34
35
36
37
38
39
40
41
42
43
44
45
46
47
48
49
50
51
52
53
54
55
56
57
58
59
60
-1
EOF
